
Gurobi 9.1.1 (mac64, gurobi_cl) logging started Sun Feb 21 19:06:17 2021

Academic license - for non-commercial use only - expires 2021-04-06
Using license file /Users/agnese/gurobi.lic
Set parameter LogFile to value gurobi.log

Gurobi Optimizer version 9.1.1 build v9.1.1rc0 (mac64)
Copyright (c) 2020, Gurobi Optimization, LLC

Read LP format model from file /Users/agnese/Documents/KTH-Work/GitHub_repositories/KTH-dESA/GLUCOSE/results/Baseline2060/Baseline2060_modified/GLUCOSE_Baseline2060_modified.lp
Reading time = 0.61 seconds
cost: 55289 rows, 45900 columns, 520298 nonzeros
Thread count: 2 physical cores, 4 logical processors, using up to 4 threads
Optimize a model with 55289 rows, 45900 columns and 520298 nonzeros
Model fingerprint: 0x5e7020d6
Coefficient statistics:
  Matrix range     [2e-08, 6e+03]
  Objective range  [7e-08, 4e+11]
  Bounds range     [0e+00, 0e+00]
  RHS range        [1e-03, 1e+06]
Warning: Model contains large objective coefficients
         Consider reformulating model or setting NumericFocus parameter
         to avoid numerical issues.

Concurrent LP optimizer: dual simplex and barrier
Showing barrier log only...

Presolve removed 29812 rows and 27980 columns
Presolve time: 0.28s
Presolved: 25477 rows, 18042 columns, 355711 nonzeros

Ordering time: 1.48s

Barrier statistics:
 AA' NZ     : 1.302e+06
 Factor NZ  : 8.985e+06 (roughly 90 MBytes of memory)
 Factor Ops : 8.613e+09 (roughly 1 second per iteration)
 Threads    : 1

                  Objective                Residual
Iter       Primal          Dual         Primal    Dual     Compl     Time
   0   5.03243302e+20 -3.34006636e+17  9.31e+08 2.08e+12  3.46e+16     3s
   1   2.66862920e+20 -4.79446586e+17  9.16e+08 1.98e+12  3.38e+16     4s
   2   3.80901876e+20 -1.42961567e+18  8.48e+08 1.39e+12  3.34e+16     5s
   3   1.56760045e+20 -3.67751020e+18  2.38e+08 3.97e+11  1.35e+16     6s
   4   3.91621862e+19 -3.72666594e+18  5.81e+07 3.41e+10  3.78e+15     8s
   5   7.93448178e+18 -2.93621641e+18  1.18e+07 3.66e+09  8.00e+14     9s
   6   1.40110016e+18 -1.75513691e+18  2.11e+06 4.97e+08  1.64e+14    10s
   7   1.22690272e+18 -1.49260865e+18  1.85e+06 3.95e+08  1.41e+14    11s
   8   7.13268736e+17 -1.05987537e+18  1.07e+06 2.04e+08  8.33e+13    12s
   9   1.87596187e+17 -7.32430773e+17  2.79e+05 1.18e+08  3.09e+13    13s
  10   5.55378334e+16 -1.13229882e+17  8.20e+04 8.46e+06  6.67e+12    14s
  11   1.79380553e+16 -5.41816941e+16  2.63e+04 3.40e+06  2.49e+12    15s
  12   4.42583147e+15 -1.51655670e+16  6.39e+03 6.26e+05  6.46e+11    16s
  13   1.28319500e+15 -4.82697717e+15  1.79e+03 1.49e+05  1.90e+11    17s
  14   4.00505453e+14 -1.69513774e+15  5.28e+02 1.39e+04  6.04e+10    19s
  15   8.79327217e+13 -3.73092958e+14  8.69e+01 1.88e+03  1.17e+10    20s
  16   1.71615860e+13 -1.10932123e+14  7.09e+00 3.43e+02  2.92e+09    22s
  17   2.17677119e+12 -2.48379467e+13  2.19e-01 4.76e+01  5.71e+08    23s
  18   1.61673085e+11 -8.81608633e+11  1.00e-02 1.07e-01  2.17e+07    25s
  19   5.11193712e+09 -3.04042789e+10  8.21e-05 1.22e-03  7.37e+05    26s
  20   4.07000017e+08 -2.49208593e+09  9.14e-07 4.88e-04  6.02e+04    27s
  21   4.36171067e+07 -1.38538373e+08  5.00e-09 4.88e-04  3.78e+03    28s
  22   3.28531385e+06 -5.05504555e+06  2.53e-09 2.44e-04  1.73e+02    29s
  23   7.63485637e+05 -1.15065233e+06  2.13e-09 4.88e-04  3.97e+01    29s
  24   4.02403922e+05 -1.08122463e+05  1.92e-09 2.44e-04  1.06e+01    30s
  25   3.50831485e+05  6.09818589e+04  1.58e-09 2.44e-04  6.02e+00    31s
  26   2.96881960e+05  2.40482543e+05  1.06e-09 4.88e-04  1.17e+00    32s
  27   2.84522167e+05  2.50634940e+05  4.86e-10 4.88e-04  7.04e-01    33s
  28   2.77268730e+05  2.60984568e+05  7.62e-10 2.44e-04  3.38e-01    34s
  29   2.70657946e+05  2.64451009e+05  1.23e-09 4.88e-04  1.29e-01    34s
  30   2.68566937e+05  2.65652162e+05  9.42e-10 2.44e-04  6.06e-02    35s
  31   2.67457510e+05  2.66445639e+05  2.91e-09 4.88e-04  2.11e-02    36s
  32   2.67075050e+05  2.66853910e+05  1.68e-08 2.44e-04  4.71e-03    37s
  33   2.66995576e+05  2.66978552e+05  4.20e-08 2.44e-04  5.20e-04    38s
  34   2.66987939e+05  2.66982438e+05  1.44e-07 2.44e-04  2.31e-04    39s
  35   2.66985208e+05  2.66985024e+05  1.36e-07 2.44e-04  9.26e-05    40s
  36   2.66984016e+05  2.66983481e+05  1.17e-07 2.44e-04  4.23e-05    41s
  37   2.66983091e+05  2.66982987e+05  2.98e-08 2.44e-04  4.80e-06    42s
  38   2.66983041e+05  2.66982987e+05  3.10e-07 2.44e-04  1.65e-06    42s
  39   2.66983020e+05  2.66982989e+05  2.53e-06 2.44e-04  9.34e-07    43s
  40   2.66983003e+05  2.66982991e+05  1.33e-06 2.44e-04  2.75e-07    44s
  41   2.66982994e+05  2.66982992e+05  4.22e-07 2.44e-04  3.21e-08    45s
  42   2.66982993e+05  2.66982993e+05  2.32e-06 1.22e-04  6.04e-09    47s

Barrier solved model in 42 iterations and 46.63 seconds
Optimal objective 2.66982993e+05

Crossover log...

    6480 DPushes remaining with DInf 0.0000000e+00                47s
       0 DPushes remaining with DInf 0.0000000e+00                47s

    4013 PPushes remaining with PInf 1.9334032e-03                47s
       0 PPushes remaining with PInf 0.0000000e+00                48s

  Push phase complete: Pinf 0.0000000e+00, Dinf 6.8314046e+00     48s

Iteration    Objective       Primal Inf.    Dual Inf.      Time
    7873    2.6698299e+05   0.000000e+00   6.831405e+00     48s
Extra simplex iterations after uncrush: 23
    8122    2.6698299e+05   0.000000e+00   0.000000e+00     48s

Solved with barrier
Solved in 8122 iterations and 48.08 seconds
Optimal objective  2.669829928e+05

No IIS available for current model

